n_res = 4;
rc = [ 0, 0, 0, 0 ];
n_tasks = 30;
d = [ 2, 7, 9, 7, 6, 2, 2, 8, 6, 8, 2, 1, 9, 3, 7, 2, 3, 7, 8, 6, 6, 2, 3, 8, 6, 9, 4, 8, 2, 9 ];
rr = [| 0, 0, 0, 0, 0, 0, 0, 0, 0, 0, 0, 0, 0, 0, 0, 0, 0, 0, 0, 0, 0, 0, 0, 0, 0, 0, 0, 0, 0, 0
      | 0, 0, 0, 0, 0, 0, 0, 0, 0, 0, 0, 0, 0, 0, 0, 0, 0, 0, 0, 0, 0, 0, 0, 0, 0, 0, 0, 0, 0, 0
      | 0, 0, 0, 0, 0, 0, 0, 0, 0, 0, 0, 0, 0, 0, 0, 0, 0, 0, 0, 0, 0, 0, 0, 0, 0, 0, 0, 0, 0, 0
      | 0, 0, 0, 0, 0, 0, 0, 0, 0, 0, 0, 0, 0, 0, 0, 0, 0, 0, 0, 0, 0, 0, 0, 0, 0, 0, 0, 0, 0, 0 |];
suc = [ { 4, 5, 6 },
       { 9, 13, 14 },
       { 4, 6, 7 },
       { 11, 12, 16 },
       { 10, 12, 17 },
       { 8, 13, 27 },
       { 13, 21, 24 },
       { 11, 20, 30 },
       { 10 },
       { 15, 16 },
       { 15, 23 },
       { 15, 18, 21 },
       { 20, 22, 23 },
       { 19, 21, 24 },
       { 29 },
       { 18, 19 },
       { 18, 20, 24 },
       { 22, 27, 28 },
       { 22, 26 },
       { 25, 28 },
       { 23, 26 },
       { 25, 30 },
       { 28 },
       { 25, 26, 30 },
       { 29 },
       { 27 },
       { 29 },
       {  },
       {  },
       {  } ];
